(declare-fun tobool.not.i.i_10_36 () (_ BitVec 1))
(declare-fun src_reg1.sroa.6.0.copyload_10_34 () (_ BitVec 64))
(declare-fun src_reg_10_19 () (_ BitVec 64))
(declare-fun src_reg1.sroa.18.0.copyload_10_33 () (_ BitVec 64))
(declare-fun src_reg_10_23 () (_ BitVec 64))
(declare-fun src_reg1.sroa.13.0.copyload_10_32 () (_ BitVec 64))
(declare-fun src_reg_10_22 () (_ BitVec 64))
(declare-fun src_reg1.sroa.11.0.copyload_10_31 () (_ BitVec 64))
(declare-fun src_reg_10_21 () (_ BitVec 64))
(declare-fun src_reg1.sroa.9.0.copyload_10_30 () (_ BitVec 64))
(declare-fun src_reg_10_20 () (_ BitVec 64))
(declare-fun src_reg_10_27 () (_ BitVec 8))
(declare-fun src_reg_10_26 () (_ BitVec 32))
(declare-fun src_reg_10_25 () (_ BitVec 32))
(declare-fun src_reg_10_24 () (_ BitVec 32))
(declare-fun src_reg_10_18 () (_ BitVec 64))
(declare-fun src_reg_10_17 () (_ BitVec 32))
(declare-fun src_reg_10_16 () (_ BitVec 32))
(declare-fun src_reg_10_15 () (_ BitVec 32))
(declare-fun src_reg_10_14 () (_ BitVec 32))
(declare-fun dst_reg_10_13 () (_ BitVec 8))
(declare-fun dst_reg_10_12 () (_ BitVec 32))
(declare-fun dst_reg_10_11 () (_ BitVec 32))
(declare-fun dst_reg_10_10 () (_ BitVec 32))
(declare-fun dst_reg_10_9 () (_ BitVec 64))
(declare-fun dst_reg_10_8 () (_ BitVec 64))
(declare-fun dst_reg_10_7 () (_ BitVec 64))
(declare-fun dst_reg_10_6 () (_ BitVec 64))
(declare-fun dst_reg_10_5 () (_ BitVec 64))
(declare-fun dst_reg_10_4 () (_ BitVec 64))
(declare-fun dst_reg_10_3 () (_ BitVec 32))
(declare-fun dst_reg_10_2 () (_ BitVec 32))
(declare-fun dst_reg_10_1 () (_ BitVec 32))
(declare-fun dst_reg_10_0 () (_ BitVec 32))
(declare-fun not.i.i.i_10_71 () (_ BitVec 64))
(declare-fun i9.i.i_10_68 () (_ BitVec 64))
(declare-fun and4.i.i.i_10_72 () (_ BitVec 64))
(declare-fun i11.i.i_10_69 () (_ BitVec 64))
(declare-fun or.cond199.i_10_43 () (_ BitVec 1))
(declare-fun or.cond200.i_10_47 () (_ BitVec 1))
(declare-fun src_reg_10_128 () (_ BitVec 8))
(declare-fun src_reg_10_100 () (_ BitVec 8))
(declare-fun src_reg_10_127 () (_ BitVec 32))
(declare-fun src_reg_10_99 () (_ BitVec 32))
(declare-fun src_reg_10_126 () (_ BitVec 32))
(declare-fun src_reg_10_98 () (_ BitVec 32))
(declare-fun src_reg_10_125 () (_ BitVec 32))
(declare-fun src_reg_10_97 () (_ BitVec 32))
(declare-fun src_reg_10_124 () (_ BitVec 64))
(declare-fun src_reg_10_96 () (_ BitVec 64))
(declare-fun src_reg_10_123 () (_ BitVec 64))
(declare-fun src_reg_10_95 () (_ BitVec 64))
(declare-fun src_reg_10_122 () (_ BitVec 64))
(declare-fun src_reg_10_94 () (_ BitVec 64))
(declare-fun src_reg_10_121 () (_ BitVec 64))
(declare-fun src_reg_10_93 () (_ BitVec 64))
(declare-fun src_reg_10_120 () (_ BitVec 64))
(declare-fun src_reg_10_92 () (_ BitVec 64))
(declare-fun src_reg_10_119 () (_ BitVec 64))
(declare-fun src_reg_10_91 () (_ BitVec 64))
(declare-fun src_reg_10_118 () (_ BitVec 32))
(declare-fun src_reg_10_90 () (_ BitVec 32))
(declare-fun src_reg_10_117 () (_ BitVec 32))
(declare-fun src_reg_10_89 () (_ BitVec 32))
(declare-fun src_reg_10_116 () (_ BitVec 32))
(declare-fun src_reg_10_88 () (_ BitVec 32))
(declare-fun src_reg_10_115 () (_ BitVec 32))
(declare-fun src_reg_10_87 () (_ BitVec 32))
(declare-fun dst_reg_10_114 () (_ BitVec 8))
(declare-fun dst_reg_10_86 () (_ BitVec 8))
(declare-fun dst_reg_10_113 () (_ BitVec 32))
(declare-fun dst_reg_10_85 () (_ BitVec 32))
(declare-fun dst_reg_10_112 () (_ BitVec 32))
(declare-fun dst_reg_10_84 () (_ BitVec 32))
(declare-fun dst_reg_10_111 () (_ BitVec 32))
(declare-fun dst_reg_10_83 () (_ BitVec 32))
(declare-fun dst_reg_10_110 () (_ BitVec 64))
(declare-fun dst_reg_10_82 () (_ BitVec 64))
(declare-fun dst_reg_10_109 () (_ BitVec 64))
(declare-fun dst_reg_10_81 () (_ BitVec 64))
(declare-fun dst_reg_10_108 () (_ BitVec 64))
(declare-fun dst_reg_10_80 () (_ BitVec 64))
(declare-fun dst_reg_10_107 () (_ BitVec 64))
(declare-fun dst_reg_10_79 () (_ BitVec 64))
(declare-fun dst_reg_10_106 () (_ BitVec 64))
(declare-fun dst_reg_10_78 () (_ BitVec 64))
(declare-fun dst_reg_10_105 () (_ BitVec 64))
(declare-fun dst_reg_10_77 () (_ BitVec 64))
(declare-fun dst_reg_10_104 () (_ BitVec 32))
(declare-fun dst_reg_10_76 () (_ BitVec 32))
(declare-fun dst_reg_10_103 () (_ BitVec 32))
(declare-fun dst_reg_10_75 () (_ BitVec 32))
(declare-fun dst_reg_10_102 () (_ BitVec 32))
(declare-fun dst_reg_10_74 () (_ BitVec 32))
(declare-fun dst_reg_10_101 () (_ BitVec 32))
(declare-fun dst_reg_10_73 () (_ BitVec 32))
(declare-fun cmp24.i_10_41 () (_ BitVec 1))
(declare-fun or.cond197.not204.i_10_40 () (_ BitVec 1))
(declare-fun cmp18.not.i_10_38 () (_ BitVec 1))
(declare-fun cmp16.not.i_10_37 () (_ BitVec 1))
(declare-fun cmp24.old.i_10_45 () (_ BitVec 1))
(declare-fun cmp21.old.i_10_44 () (_ BitVec 1))
(assert (let ((a!1 (=> (= tobool.not.i.i_10_36 #b0)
               (and (ite (bvsgt src_reg1.sroa.9.0.copyload_10_30
                                src_reg1.sroa.11.0.copyload_10_31)
                         (= cmp21.old.i_10_44 #b1)
                         (= cmp21.old.i_10_44 #b0))
                    (ite (bvugt src_reg1.sroa.13.0.copyload_10_32
                                src_reg1.sroa.18.0.copyload_10_33)
                         (= cmp24.old.i_10_45 #b1)
                         (= cmp24.old.i_10_45 #b0))
                    (ite (= cmp21.old.i_10_44 #b1)
                         (= or.cond200.i_10_47 #b1)
                         (= or.cond200.i_10_47 cmp24.old.i_10_45)))))
      (a!2 (=> (= tobool.not.i.i_10_36 #b1)
               (and (ite (distinct src_reg1.sroa.9.0.copyload_10_30
                                   src_reg1.sroa.11.0.copyload_10_31)
                         (= cmp16.not.i_10_37 #b1)
                         (= cmp16.not.i_10_37 #b0))
                    (ite (distinct src_reg1.sroa.13.0.copyload_10_32
                                   src_reg1.sroa.18.0.copyload_10_33)
                         (= cmp18.not.i_10_38 #b1)
                         (= cmp18.not.i_10_38 #b0))
                    (ite (= cmp16.not.i_10_37 #b1)
                         (= or.cond197.not204.i_10_40 #b1)
                         (= or.cond197.not204.i_10_40 cmp18.not.i_10_38))
                    (ite (bvugt src_reg1.sroa.13.0.copyload_10_32
                                src_reg1.sroa.18.0.copyload_10_33)
                         (= cmp24.i_10_41 #b1)
                         (= cmp24.i_10_41 #b0))
                    (ite (= or.cond197.not204.i_10_40 #b1)
                         (= or.cond199.i_10_43 #b1)
                         (= or.cond199.i_10_43 cmp24.i_10_41)))))
      (a!3 (or (and (= or.cond200.i_10_47 #b0) (= tobool.not.i.i_10_36 #b0))
               (and (= or.cond199.i_10_43 #b0) (= tobool.not.i.i_10_36 #b1))))
      (a!4 (or (and (= or.cond200.i_10_47 #b1) (= tobool.not.i.i_10_36 #b0))
               (and (= or.cond199.i_10_43 #b1) (= tobool.not.i.i_10_36 #b1))))
      (a!5 (and (= #x00000001 src_reg_10_87)
                (= src_reg_10_15 src_reg_10_88)
                (= src_reg_10_16 src_reg_10_89)
                (= src_reg_10_17 src_reg_10_90)
                (= src_reg_10_18 src_reg_10_91)
                (= src_reg_10_19 src_reg_10_92)
                (= src_reg_10_20 src_reg_10_93)
                (= src_reg_10_21 src_reg_10_94)
                (= src_reg_10_22 src_reg_10_95)
                (= src_reg_10_23 src_reg_10_96)
                (= src_reg_10_24 src_reg_10_97)
                (= src_reg_10_25 src_reg_10_98)
                (= src_reg_10_26 src_reg_10_99)
                (= src_reg_10_27 src_reg_10_100)
                (= #x00000001 dst_reg_10_73)
                (= dst_reg_10_1 dst_reg_10_74)
                (= dst_reg_10_2 dst_reg_10_75)
                (= dst_reg_10_3 dst_reg_10_76)
                (= #x0000000000000000 dst_reg_10_77)
                (= #xffffffffffffffff dst_reg_10_78)
                (= #x8000000000000000 dst_reg_10_79)
                (= #x7fffffffffffffff dst_reg_10_80)
                (= #x0000000000000000 dst_reg_10_81)
                (= #xffffffffffffffff dst_reg_10_82)
                (= #x00000000 dst_reg_10_83)
                (= dst_reg_10_11 dst_reg_10_84)
                (= dst_reg_10_12 dst_reg_10_85)
                (= dst_reg_10_13 dst_reg_10_86))))
(let ((a!6 (and (=> a!4 a!5)
                (=> (and (= tobool.not.i.i_10_36 #b1) a!3)
                    (and (= #x00000001 src_reg_10_87)
                         (= src_reg_10_15 src_reg_10_88)
                         (= src_reg_10_16 src_reg_10_89)
                         (= src_reg_10_17 src_reg_10_90)
                         (= src_reg_10_18 src_reg_10_91)
                         (= src_reg_10_19 src_reg_10_92)
                         (= src_reg_10_20 src_reg_10_93)
                         (= src_reg_10_21 src_reg_10_94)
                         (= src_reg_10_22 src_reg_10_95)
                         (= src_reg_10_23 src_reg_10_96)
                         (= src_reg_10_24 src_reg_10_97)
                         (= src_reg_10_25 src_reg_10_98)
                         (= src_reg_10_26 src_reg_10_99)
                         (= src_reg_10_27 src_reg_10_100)
                         (= #x00000001 dst_reg_10_73)
                         (= dst_reg_10_1 dst_reg_10_74)
                         (= dst_reg_10_2 dst_reg_10_75)
                         (= dst_reg_10_3 dst_reg_10_76)
                         (= and4.i.i.i_10_72 dst_reg_10_77)
                         (= i11.i.i_10_69 dst_reg_10_78)
                         (= #x8000000000000000 dst_reg_10_79)
                         (= #x7fffffffffffffff dst_reg_10_80)
                         (= #x0000000000000000 dst_reg_10_81)
                         (= #xffffffffffffffff dst_reg_10_82)
                         (= dst_reg_10_10 dst_reg_10_83)
                         (= dst_reg_10_11 dst_reg_10_84)
                         (= dst_reg_10_12 dst_reg_10_85)
                         (= dst_reg_10_13 dst_reg_10_86)))
                (=> (and (= tobool.not.i.i_10_36 #b0) a!3) a!5)
                (= dst_reg_10_73 dst_reg_10_101)
                (= dst_reg_10_74 dst_reg_10_102)
                (= dst_reg_10_75 dst_reg_10_103)
                (= dst_reg_10_76 dst_reg_10_104)
                (= dst_reg_10_77 dst_reg_10_105)
                (= dst_reg_10_78 dst_reg_10_106)
                (= dst_reg_10_79 dst_reg_10_107)
                (= dst_reg_10_80 dst_reg_10_108)
                (= dst_reg_10_81 dst_reg_10_109)
                (= dst_reg_10_82 dst_reg_10_110)
                (= dst_reg_10_83 dst_reg_10_111)
                (= dst_reg_10_84 dst_reg_10_112)
                (= dst_reg_10_85 dst_reg_10_113)
                (= dst_reg_10_86 dst_reg_10_114)
                (= src_reg_10_87 src_reg_10_115)
                (= src_reg_10_88 src_reg_10_116)
                (= src_reg_10_89 src_reg_10_117)
                (= src_reg_10_90 src_reg_10_118)
                (= src_reg_10_91 src_reg_10_119)
                (= src_reg_10_92 src_reg_10_120)
                (= src_reg_10_93 src_reg_10_121)
                (= src_reg_10_94 src_reg_10_122)
                (= src_reg_10_95 src_reg_10_123)
                (= src_reg_10_96 src_reg_10_124)
                (= src_reg_10_97 src_reg_10_125)
                (= src_reg_10_98 src_reg_10_126)
                (= src_reg_10_99 src_reg_10_127)
                (= src_reg_10_100 src_reg_10_128)))
      (a!8 (=> (and (= tobool.not.i.i_10_36 #b1) a!3)
               (and (= #x0000000000000000 i9.i.i_10_68)
                    (= #xffffffffffffffff i11.i.i_10_69)
                    (= not.i.i.i_10_71 (bvxor i11.i.i_10_69 #xffffffffffffffff))
                    (= and4.i.i.i_10_72 (bvand i9.i.i_10_68 not.i.i.i_10_71))))))
(let ((a!7 (=> (or (and (= tobool.not.i.i_10_36 #b1) a!3)
                   (and (= tobool.not.i.i_10_36 #b0) a!3)
                   a!4)
               a!6)))
  (and a!1
       a!2
       a!7
       a!8
       (= dst_reg_10_0 dst_reg_10_0)
       (= dst_reg_10_1 dst_reg_10_1)
       (= dst_reg_10_2 dst_reg_10_2)
       (= dst_reg_10_3 dst_reg_10_3)
       (= dst_reg_10_4 dst_reg_10_4)
       (= dst_reg_10_5 dst_reg_10_5)
       (= dst_reg_10_6 dst_reg_10_6)
       (= dst_reg_10_7 dst_reg_10_7)
       (= dst_reg_10_8 dst_reg_10_8)
       (= dst_reg_10_9 dst_reg_10_9)
       (= dst_reg_10_10 dst_reg_10_10)
       (= dst_reg_10_11 dst_reg_10_11)
       (= dst_reg_10_12 dst_reg_10_12)
       (= dst_reg_10_13 dst_reg_10_13)
       (= src_reg_10_14 src_reg_10_14)
       (= src_reg_10_15 src_reg_10_15)
       (= src_reg_10_16 src_reg_10_16)
       (= src_reg_10_17 src_reg_10_17)
       (= src_reg_10_18 src_reg_10_18)
       (= src_reg_10_19 src_reg_10_19)
       (= src_reg_10_20 src_reg_10_20)
       (= src_reg_10_21 src_reg_10_21)
       (= src_reg_10_22 src_reg_10_22)
       (= src_reg_10_23 src_reg_10_23)
       (= src_reg_10_24 src_reg_10_24)
       (= src_reg_10_25 src_reg_10_25)
       (= src_reg_10_26 src_reg_10_26)
       (= src_reg_10_27 src_reg_10_27)
       (= src_reg_10_20 src_reg1.sroa.9.0.copyload_10_30)
       (= src_reg_10_21 src_reg1.sroa.11.0.copyload_10_31)
       (= src_reg_10_22 src_reg1.sroa.13.0.copyload_10_32)
       (= src_reg_10_23 src_reg1.sroa.18.0.copyload_10_33)
       (= src_reg_10_19 src_reg1.sroa.6.0.copyload_10_34)
       (ite (= src_reg1.sroa.6.0.copyload_10_34 #x0000000000000000)
            (= tobool.not.i.i_10_36 #b1)
            (= tobool.not.i.i_10_36 #b0)))))))

;{"dst_reg":["dst_reg_10_0",[""],"dst_reg_10_1","dst_reg_10_2","dst_reg_10_3",["dst_reg_10_4","dst_reg_10_5"],"dst_reg_10_6","dst_reg_10_7","dst_reg_10_8","dst_reg_10_9","","","dst_reg_10_10","dst_reg_10_11","dst_reg_10_12"],"src_reg":["src_reg_10_14",[""],"src_reg_10_15","src_reg_10_16","src_reg_10_17",["src_reg_10_18","src_reg_10_19"],"src_reg_10_20","src_reg_10_21","src_reg_10_22","src_reg_10_23","","","src_reg_10_24","src_reg_10_25","src_reg_10_26"]}
;{"dst_reg":["dst_reg_10_101",[""],"dst_reg_10_102","dst_reg_10_103","dst_reg_10_104",["dst_reg_10_105","dst_reg_10_106"],"dst_reg_10_107","dst_reg_10_108","dst_reg_10_109","dst_reg_10_110","","","dst_reg_10_111","dst_reg_10_112","dst_reg_10_113"],"src_reg":["src_reg_10_115",[""],"src_reg_10_116","src_reg_10_117","src_reg_10_118",["src_reg_10_119","src_reg_10_120"],"src_reg_10_121","src_reg_10_122","src_reg_10_123","src_reg_10_124","","","src_reg_10_125","src_reg_10_126","src_reg_10_127"]}
